%%%%%%%%%%%%%%%%%%%%%%%%%
% MWSSP parameter file that may be used in place of command line parameters


% Fix heuristics here

MWSSP_SEARCH_STRATEGY						=	ARCS_SPECIFIC;  % see enum MWSSP_SEARCH
MWSSP_SEARCH_RESTART						=	RESTART_NONE; % see enum SEARCH_RESTART

MWSSP_SEARCH_VARIABLES_ARCS			=	DESC_WEIGHT_TAIL; % see enums MWSSP_SEARCH_VARIABLES and SEARCH_VARIABLES
MWSSP_SEARCH_DOMAIN_ARCS				=	INDOMAIN_MAX; % see enums MWSSP_SEARCH_DOMAIN and SEARCH_DOMAIN
